
******************************************************************************
This program contains Ipopt, a library for large-scale nonlinear optimization.
 Ipopt is released as open source code under the Eclipse Public License (EPL).
         For more information visit http://projects.coin-or.org/Ipopt
******************************************************************************

This is Ipopt version 3.12.6, running with linear solver ma57.

Number of nonzeros in equality constraint Jacobian...:        0
Number of nonzeros in inequality constraint Jacobian.:        0
Number of nonzeros in Lagrangian Hessian.............:    28616

Total number of variables............................:     9604
                     variables with only lower bounds:        0
                variables with lower and upper bounds:     9604
                     variables with only upper bounds:        0
Total number of equality constraints.................:        0
Total number of inequality constraints...............:        0
        inequality constraints with only lower bounds:        0
   inequality constraints with lower and upper bounds:        0
        inequality constraints with only upper bounds:        0

iter    objective    inf_pr   inf_du lg(mu)  ||d||  lg(rg) alpha_du alpha_pr  ls
   0  2.3578954e+00 0.00e+00 9.07e-02  -1.0 0.00e+00    -  0.00e+00 0.00e+00   0
   1  3.1657599e+00 0.00e+00 5.57e-03  -1.0 1.00e-01    -  9.52e-01 1.00e+00f  1
   2  2.1308628e+02 0.00e+00 6.79e-03  -1.0 2.07e+00    -  9.91e-01 1.00e+00f  1
   3  7.2245941e+02 0.00e+00 1.83e-01  -1.0 2.06e+01    -  7.33e-01 5.00e-01f  2
   4  2.8744974e+02 0.00e+00 9.09e-15  -1.7 4.70e+00    -  1.00e+00 1.00e+00f  1
   5  8.4371206e+01 0.00e+00 4.39e-15  -2.5 3.93e+00    -  1.00e+00 1.00e+00f  1
   6  2.4431581e+01 0.00e+00 2.23e-15  -3.8 2.12e+00    -  1.00e+00 1.00e+00f  1
   7  8.3683227e+00 0.00e+00 1.18e-15  -3.8 1.02e+00    -  1.00e+00 1.00e+00f  1
   8  3.4320518e+00 0.00e+00 8.34e-16  -5.7 4.96e-01    -  1.00e+00 1.00e+00f  1
   9  2.2936325e+00 0.00e+00 6.04e-04  -5.7 1.73e-01    -  1.00e+00 8.55e-01f  1
iter    objective    inf_pr   inf_du lg(mu)  ||d||  lg(rg) alpha_du alpha_pr  ls
  10  1.9841308e+00 0.00e+00 3.67e-04  -5.7 7.71e-02    -  1.00e+00 8.54e-01f  1
  11  1.9049277e+00 0.00e+00 2.08e-05  -5.7 3.38e-02    -  1.00e+00 9.85e-01f  1
  12  1.8975774e+00 0.00e+00 3.65e-16  -5.7 9.82e-03    -  1.00e+00 1.00e+00f  1
  13  1.8885792e+00 0.00e+00 1.12e-04  -8.6 7.70e-03    -  1.00e+00 8.05e-01f  1
  14  1.8870133e+00 0.00e+00 1.22e-04  -8.6 3.50e-03    -  1.00e+00 7.24e-01f  1
  15  1.8866075e+00 0.00e+00 8.62e-05  -8.6 1.78e-03    -  1.00e+00 7.25e-01f  1
  16  1.8865011e+00 0.00e+00 5.54e-05  -8.6 8.08e-04    -  1.00e+00 7.69e-01f  1
  17  1.8864750e+00 0.00e+00 1.50e-05  -8.6 3.05e-04    -  1.00e+00 9.11e-01f  1
  18  1.8864725e+00 0.00e+00 3.68e-16  -8.6 6.73e-05    -  1.00e+00 1.00e+00f  1

Number of Iterations....: 18

                                   (scaled)                 (unscaled)
Objective...............:   1.8864725220924143e+00    1.8864725220924143e+00
Dual infeasibility......:   3.6845831052956941e-16    3.6845831052956941e-16
Constraint violation....:   0.0000000000000000e+00    0.0000000000000000e+00
Complementarity.........:   3.7368811160764305e-09    3.7368811160764305e-09
Overall NLP error.......:   3.7368811160764305e-09    3.7368811160764305e-09


Number of objective function evaluations             = 24
Number of objective gradient evaluations             = 19
Number of equality constraint evaluations            = 0
Number of inequality constraint evaluations          = 0
Number of equality constraint Jacobian evaluations   = 0
Number of inequality constraint Jacobian evaluations = 0
Number of Lagrangian Hessian evaluations             = 18
Total CPU secs in IPOPT (w/o function evaluations)   =      0.217
Total CPU secs in NLP function evaluations           =      0.213

EXIT: Optimal Solution Found.
Note: The following floating-point exceptions are signalling: IEEE_UNDERFLOW_FLAG IEEE_DENORMAL

 ** SUBROUTINE CUTEST_csetup: Warning. The problem has no general constraints. 
 ** Other tools may be preferable ** 

************************ CUTEst statistics ************************


 Package used            :  IPOPT
 Problem                 :  OBSTCLAL  
 # variables             =           10000
 # constraints           =               0
 # objective functions   =        0.4400000E+02
 # objective gradients   =        0.2000000E+02
 # objective Hessians    =        0.1900000E+02
 # Hessian-vector prdct  =        0.0000000E+00
 # constraints functions =        0.0000000E+00
 # constraints gradients =        0.0000000E+00
 # constraints Hessians  =        0.0000000E+00
 Exit code               =               0
 Final f                 =   0.1886473E+01
 Set up time             =            0.30 seconds
 Solve time              =            0.44 seconds


******************************************************************

System Time =       0.4339999855 s.
